NAME          
ROWS
 N  OBJ
 L  c1
COLUMNS
    MARKER    'MARKER'                 'INTORG'
    x[1]      c1        828
    x[1]      OBJ       -319
    x[2]      c1        686
    x[2]      OBJ       -476
    x[3]      c1        528
    x[3]      OBJ       -910
    x[4]      c1        672
    x[4]      OBJ       -593
    x[5]      c1        43
    x[5]      OBJ       -569
    x[6]      c1        649
    x[6]      OBJ       -37
    x[7]      c1        606
    x[7]      OBJ       -321
    x[8]      c1        512
    x[8]      OBJ       -211
    x[9]      c1        911
    x[9]      OBJ       -324
    x[10]     c1        543
    x[10]     OBJ       -5
    x[11]     c1        836
    x[11]     OBJ       -226
    x[12]     c1        810
    x[12]     OBJ       -367
    x[13]     c1        597
    x[13]     OBJ       -971
    x[14]     c1        924
    x[14]     OBJ       -675
    x[15]     c1        763
    x[15]     OBJ       -870
    x[16]     c1        770
    x[16]     OBJ       -764
    x[17]     c1        362
    x[17]     OBJ       -857
    x[18]     c1        974
    x[18]     OBJ       -273
    x[19]     c1        130
    x[19]     OBJ       -396
    x[20]     c1        226
    x[20]     OBJ       -8
    x[21]     c1        583
    x[21]     OBJ       -91
    x[22]     c1        787
    x[22]     OBJ       -540
    x[23]     c1        531
    x[23]     OBJ       -676
    x[24]     c1        166
    x[24]     OBJ       -952
    x[25]     c1        545
    x[25]     OBJ       -249
    x[26]     c1        650
    x[26]     OBJ       -346
    x[27]     c1        750
    x[27]     OBJ       -948
    x[28]     c1        649
    x[28]     OBJ       -543
    x[29]     c1        459
    x[29]     OBJ       -884
    x[30]     c1        832
    x[30]     OBJ       -432
    x[31]     c1        309
    x[31]     OBJ       -34
    x[32]     c1        960
    x[32]     OBJ       -991
    x[33]     c1        459
    x[33]     OBJ       -44
    x[34]     c1        696
    x[34]     OBJ       -786
    x[35]     c1        966
    x[35]     OBJ       -254
    x[36]     c1        815
    x[36]     OBJ       -245
    x[37]     c1        623
    x[37]     OBJ       -934
    x[38]     c1        67
    x[38]     OBJ       -730
    x[39]     c1        753
    x[39]     OBJ       -644
    x[40]     c1        272
    x[40]     OBJ       -62
    x[41]     c1        146
    x[41]     OBJ       -686
    x[42]     c1        725
    x[42]     OBJ       -870
    x[43]     c1        842
    x[43]     OBJ       -718
    x[44]     c1        141
    x[44]     OBJ       -321
    x[45]     c1        157
    x[45]     OBJ       -353
    x[46]     c1        676
    x[46]     OBJ       -145
    x[47]     c1        293
    x[47]     OBJ       -429
    x[48]     c1        648
    x[48]     OBJ       -973
    x[49]     c1        571
    x[49]     OBJ       -774
    x[50]     c1        630
    x[50]     OBJ       -28
    x[51]     c1        703
    x[51]     OBJ       -537
    x[52]     c1        443
    x[52]     OBJ       -93
    x[53]     c1        316
    x[53]     OBJ       -20
    x[54]     c1        747
    x[54]     OBJ       -619
    x[55]     c1        270
    x[55]     OBJ       -726
    x[56]     c1        182
    x[56]     OBJ       -924
    x[57]     c1        750
    x[57]     OBJ       -54
    x[58]     c1        889
    x[58]     OBJ       -578
    x[59]     c1        401
    x[59]     OBJ       -262
    x[60]     c1        248
    x[60]     OBJ       -472
    x[61]     c1        712
    x[61]     OBJ       -590
    x[62]     c1        466
    x[62]     OBJ       -309
    x[63]     c1        88
    x[63]     OBJ       -957
    x[64]     c1        735
    x[64]     OBJ       -774
    x[65]     c1        847
    x[65]     OBJ       -504
    x[66]     c1        794
    x[66]     OBJ       -115
    x[67]     c1        436
    x[67]     OBJ       -964
    x[68]     c1        867
    x[68]     OBJ       -644
    x[69]     c1        29
    x[69]     OBJ       -512
    x[70]     c1        544
    x[70]     OBJ       -86
    x[71]     c1        715
    x[71]     OBJ       -221
    x[72]     c1        412
    x[72]     OBJ       -363
    x[73]     c1        627
    x[73]     OBJ       -62
    x[74]     c1        389
    x[74]     OBJ       -374
    x[75]     c1        714
    x[75]     OBJ       -427
    x[76]     c1        281
    x[76]     OBJ       -93
    x[77]     c1        780
    x[77]     OBJ       -291
    x[78]     c1        770
    x[78]     OBJ       -231
    x[79]     c1        473
    x[79]     OBJ       -77
    x[80]     c1        450
    x[80]     OBJ       -605
    x[81]     c1        842
    x[81]     OBJ       -295
    x[82]     c1        421
    x[82]     OBJ       -114
    x[83]     c1        315
    x[83]     OBJ       -242
    x[84]     c1        686
    x[84]     OBJ       -664
    x[85]     c1        195
    x[85]     OBJ       -639
    x[86]     c1        574
    x[86]     OBJ       -36
    x[87]     c1        463
    x[87]     OBJ       -934
    x[88]     c1        607
    x[88]     OBJ       -875
    x[89]     c1        736
    x[89]     OBJ       -33
    x[90]     c1        800
    x[90]     OBJ       -922
    x[91]     c1        214
    x[91]     OBJ       -209
    x[92]     c1        954
    x[92]     OBJ       -225
    x[93]     c1        726
    x[93]     OBJ       -154
    x[94]     c1        308
    x[94]     OBJ       -575
    x[95]     c1        818
    x[95]     OBJ       -972
    x[96]     c1        78
    x[96]     OBJ       -144
    x[97]     c1        53
    x[97]     OBJ       -672
    x[98]     c1        898
    x[98]     OBJ       -90
    x[99]     c1        46
    x[99]     OBJ       -555
    x[100]    c1        401
    x[100]    OBJ       -262
RHS
    rhs       c1        27642
RANGES
BOUNDS
 LO bounds    x[1]      0
 PL bounds    x[1]
 LO bounds    x[2]      0
 PL bounds    x[2]
 LO bounds    x[3]      0
 PL bounds    x[3]
 LO bounds    x[4]      0
 PL bounds    x[4]
 LO bounds    x[5]      0
 PL bounds    x[5]
 LO bounds    x[6]      0
 PL bounds    x[6]
 LO bounds    x[7]      0
 PL bounds    x[7]
 LO bounds    x[8]      0
 PL bounds    x[8]
 LO bounds    x[9]      0
 PL bounds    x[9]
 LO bounds    x[10]     0
 PL bounds    x[10]
 LO bounds    x[11]     0
 PL bounds    x[11]
 LO bounds    x[12]     0
 PL bounds    x[12]
 LO bounds    x[13]     0
 PL bounds    x[13]
 LO bounds    x[14]     0
 PL bounds    x[14]
 LO bounds    x[15]     0
 PL bounds    x[15]
 LO bounds    x[16]     0
 PL bounds    x[16]
 LO bounds    x[17]     0
 PL bounds    x[17]
 LO bounds    x[18]     0
 PL bounds    x[18]
 LO bounds    x[19]     0
 PL bounds    x[19]
 LO bounds    x[20]     0
 PL bounds    x[20]
 LO bounds    x[21]     0
 PL bounds    x[21]
 LO bounds    x[22]     0
 PL bounds    x[22]
 LO bounds    x[23]     0
 PL bounds    x[23]
 LO bounds    x[24]     0
 PL bounds    x[24]
 LO bounds    x[25]     0
 PL bounds    x[25]
 LO bounds    x[26]     0
 PL bounds    x[26]
 LO bounds    x[27]     0
 PL bounds    x[27]
 LO bounds    x[28]     0
 PL bounds    x[28]
 LO bounds    x[29]     0
 PL bounds    x[29]
 LO bounds    x[30]     0
 PL bounds    x[30]
 LO bounds    x[31]     0
 PL bounds    x[31]
 LO bounds    x[32]     0
 PL bounds    x[32]
 LO bounds    x[33]     0
 PL bounds    x[33]
 LO bounds    x[34]     0
 PL bounds    x[34]
 LO bounds    x[35]     0
 PL bounds    x[35]
 LO bounds    x[36]     0
 PL bounds    x[36]
 LO bounds    x[37]     0
 PL bounds    x[37]
 LO bounds    x[38]     0
 PL bounds    x[38]
 LO bounds    x[39]     0
 PL bounds    x[39]
 LO bounds    x[40]     0
 PL bounds    x[40]
 LO bounds    x[41]     0
 PL bounds    x[41]
 LO bounds    x[42]     0
 PL bounds    x[42]
 LO bounds    x[43]     0
 PL bounds    x[43]
 LO bounds    x[44]     0
 PL bounds    x[44]
 LO bounds    x[45]     0
 PL bounds    x[45]
 LO bounds    x[46]     0
 PL bounds    x[46]
 LO bounds    x[47]     0
 PL bounds    x[47]
 LO bounds    x[48]     0
 PL bounds    x[48]
 LO bounds    x[49]     0
 PL bounds    x[49]
 LO bounds    x[50]     0
 PL bounds    x[50]
 LO bounds    x[51]     0
 PL bounds    x[51]
 LO bounds    x[52]     0
 PL bounds    x[52]
 LO bounds    x[53]     0
 PL bounds    x[53]
 LO bounds    x[54]     0
 PL bounds    x[54]
 LO bounds    x[55]     0
 PL bounds    x[55]
 LO bounds    x[56]     0
 PL bounds    x[56]
 LO bounds    x[57]     0
 PL bounds    x[57]
 LO bounds    x[58]     0
 PL bounds    x[58]
 LO bounds    x[59]     0
 PL bounds    x[59]
 LO bounds    x[60]     0
 PL bounds    x[60]
 LO bounds    x[61]     0
 PL bounds    x[61]
 LO bounds    x[62]     0
 PL bounds    x[62]
 LO bounds    x[63]     0
 PL bounds    x[63]
 LO bounds    x[64]     0
 PL bounds    x[64]
 LO bounds    x[65]     0
 PL bounds    x[65]
 LO bounds    x[66]     0
 PL bounds    x[66]
 LO bounds    x[67]     0
 PL bounds    x[67]
 LO bounds    x[68]     0
 PL bounds    x[68]
 LO bounds    x[69]     0
 PL bounds    x[69]
 LO bounds    x[70]     0
 PL bounds    x[70]
 LO bounds    x[71]     0
 PL bounds    x[71]
 LO bounds    x[72]     0
 PL bounds    x[72]
 LO bounds    x[73]     0
 PL bounds    x[73]
 LO bounds    x[74]     0
 PL bounds    x[74]
 LO bounds    x[75]     0
 PL bounds    x[75]
 LO bounds    x[76]     0
 PL bounds    x[76]
 LO bounds    x[77]     0
 PL bounds    x[77]
 LO bounds    x[78]     0
 PL bounds    x[78]
 LO bounds    x[79]     0
 PL bounds    x[79]
 LO bounds    x[80]     0
 PL bounds    x[80]
 LO bounds    x[81]     0
 PL bounds    x[81]
 LO bounds    x[82]     0
 PL bounds    x[82]
 LO bounds    x[83]     0
 PL bounds    x[83]
 LO bounds    x[84]     0
 PL bounds    x[84]
 LO bounds    x[85]     0
 PL bounds    x[85]
 LO bounds    x[86]     0
 PL bounds    x[86]
 LO bounds    x[87]     0
 PL bounds    x[87]
 LO bounds    x[88]     0
 PL bounds    x[88]
 LO bounds    x[89]     0
 PL bounds    x[89]
 LO bounds    x[90]     0
 PL bounds    x[90]
 LO bounds    x[91]     0
 PL bounds    x[91]
 LO bounds    x[92]     0
 PL bounds    x[92]
 LO bounds    x[93]     0
 PL bounds    x[93]
 LO bounds    x[94]     0
 PL bounds    x[94]
 LO bounds    x[95]     0
 PL bounds    x[95]
 LO bounds    x[96]     0
 PL bounds    x[96]
 LO bounds    x[97]     0
 PL bounds    x[97]
 LO bounds    x[98]     0
 PL bounds    x[98]
 LO bounds    x[99]     0
 PL bounds    x[99]
 LO bounds    x[100]    0
 PL bounds    x[100]
ENDATA
